c SAT Generator for power-law distributed variable frequencies
c -g u -v 20 -c 91 -k 3 -p 2.750000 -b 3.200000 -f /home/schmidt/Devel/ni-kop-sat/data/ensemble/ruf20-91/ruf20-91-36 -u 1 -U 1 -s 2888231033
p cnf 20 91
2 -7 11 0
-1 -10 -15 0
8 -10 11 0
4 8 -11 0
3 -19 20 0
-6 -8 19 0
-7 -11 -13 0
-10 16 -19 0
1 8 -12 0
5 11 -18 0
9 10 13 0
-12 -14 -20 0
5 12 -14 0
6 -7 -12 0
-5 -10 -18 0
6 -10 -12 0
13 -14 16 0
7 14 18 0
-9 -10 11 0
3 8 -18 0
9 14 -19 0
7 10 18 0
8 12 16 0
7 16 19 0
17 -19 -20 0
-6 -8 17 0
1 -10 -18 0
-11 -13 -19 0
-12 13 20 0
-3 14 17 0
-3 -4 -11 0
-3 -8 -14 0
-11 12 14 0
5 -9 -20 0
-4 -14 18 0
1 3 9 0
1 -6 7 0
-6 15 -20 0
6 -8 -13 0
4 -5 20 0
-5 16 -19 0
4 6 -12 0
5 -12 -19 0
-5 -8 20 0
9 -10 -13 0
5 -8 -10 0
-4 13 17 0
1 -5 -19 0
10 -17 18 0
-2 -8 -16 0
-3 14 19 0
-6 -8 18 0
-11 13 -18 0
-1 -7 -11 0
6 -14 -17 0
-3 9 15 0
3 -4 -16 0
10 16 -17 0
7 -16 -20 0
5 10 15 0
4 9 -11 0
2 -11 17 0
10 12 14 0
-10 -13 15 0
-3 4 -7 0
10 -13 -14 0
-6 -8 11 0
-8 -11 -17 0
-1 7 14 0
1 9 -15 0
-7 -12 -14 0
-3 -6 -15 0
2 -3 -19 0
7 13 17 0
-2 -3 -12 0
7 11 18 0
-7 18 -19 0
7 -10 11 0
-6 -12 13 0
6 -14 20 0
-4 -7 20 0
-6 -12 15 0
-11 -13 -17 0
-2 -9 18 0
-3 -9 -10 0
7 -16 -18 0
-1 -5 16 0
-9 12 -18 0
1 6 11 0
-3 -4 -15 0
7 10 11 0
